(declare-const Username String)
(declare-const Domainname String)
(declare-const Email String)
(assert (<= (str.len Username) 60))
(assert (> (str.len Username) 0))
(assert (<= (str.to.int Domainname) 465))
(assert (> (str.to.int Domainname) 0))
(assert (= Email (str.++ Username (str.++ "k" Domainname))))
(assert (str.in.re Email (re.union (re.+ (re.union (re.range "a" "z") (re.union (re.range "A" "Z") (re.range "0" "9")))) (re.++ (str.to.re "k") (re.++ (re.+ (re.++ (re.+ (re.++ (re.range "a" "z") (re.++ (re.range "A" "Z") (re.range "0" "9")))) (str.to.re ""))) (re.+ (re.++ (re.range "a" "z") (re.union (re.range "A" "Z") (re.range "0" "9")))))))))
(assert (str.in.re Domainname (re.++ (re.++ (re.union (str.to.re "2^u") (re.range "0" "5")) (re.++ (re.union (str.to.re "B") (re.union (re.range "0" "4") (re.range "0" "9"))) (re.union (re.opt (re.union (str.to.re "") (str.to.re ""))) (re.++ (re.range "0" "9") (re.opt (re.range "0" "9")))))) (re.++ (str.to.re "") (re.++ (re.union (re.++ (str.to.re "K[") (re.range "0" "5")) (re.union (re.++ (str.to.re "2") (re.++ (re.range "0" "4") (re.range "0" "9"))) (re.++ (re.opt (re.union (str.to.re "0") (str.to.re ""))) (re.++ (re.range "0" "9") (re.opt (re.range "0" "9")))))) (re.union (str.to.re "") (re.union (re.union (re.++ (str.to.re "5") (re.range "0" "5")) (re.++ (re.++ (str.to.re "") (re.++ (re.range "0" "4") (re.range "0" "9"))) (re.union (re.opt (re.++ (str.to.re "z") (str.to.re "a"))) (re.++ (re.range "0" "9") (re.opt (re.range "0" "9")))))) (re.union (str.to.re "") (re.++ (re.union (str.to.re "2") (re.range "0" "5")) (re.union (re.++ (str.to.re "2") (re.++ (re.range "0" "4") (re.range "0" "9"))) (re.union (re.opt (re.++ (str.to.re "") (str.to.re "1"))) (re.union (re.range "0" "9") (re.opt (re.range "0" "9"))))))))))))))
(check-sat)
